4 4 100 1 2
0 1000
 1 40.00 50.00 0.00 0.00 0.00 0 0 0 960
 2 25.00 85.00 10.00 20.00 40.00 1 1 1 431 911
 3 22.00 75.00 10.00 30.00 19.00 1 1 1 30 510
 4 22.00 85.00 10.00 10.00 9.00 1 1 1 291 771
 5 20.00 80.00 10.00 40.00 10.00 1 1 1 674 734
 6 20.00 85.00 10.00 20.00 20.00 1 1 1 40 520
 7 18.00 75.00 10.00 20.00 23.00 1 1 1 393 502
 8 15.00 75.00 10.00 20.00 9.00 1 1 1 120 600
 9 15.00 80.00 10.00 10.00 21.00 1 1 1 397 457
 10 10.00 35.00 10.00 20.00 6.00 1 1 1 401 461
 11 10.00 40.00 10.00 30.00 10.00 1 1 1 535 622
 12 8.00 40.00 10.00 40.00 13.00 1 1 1 225 285
 13 8.00 45.00 10.00 20.00 6.00 1 1 1 43 523
 14 5.00 35.00 10.00 10.00 16.00 1 1 1 683 743
 15 5.00 45.00 10.00 10.00 30.00 1 1 1 35 366
 16 2.00 40.00 10.00 20.00 20.00 1 1 1 204 264
 17 0.00 40.00 10.00 20.00 10.00 1 1 1 204 425
 18 0.00 45.00 10.00 20.00 14.00 1 1 1 698 827
 19 44.00 5.00 10.00 20.00 17.00 1 1 1 306 483
 20 42.00 10.00 10.00 40.00 10.00 1 1 1 199 428
 21 42.00 15.00 10.00 10.00 10.00 1 1 1 494 699
 22 40.00 5.00 10.00 10.00 20.00 1 1 1 45 525
 23 40.00 15.00 10.00 40.00 19.00 1 1 1 383 486
 24 38.00 5.00 10.00 30.00 30.00 1 1 1 231 291
 25 38.00 15.00 10.00 10.00 20.00 1 1 1 609 872
 26 35.00 5.00 10.00 20.00 40.00 1 1 1 821 881
 27 95.00 30.00 10.00 30.00 27.00 1 1 1 349 829
 28 95.00 35.00 10.00 20.00 5.00 1 1 1 138 273
 29 92.00 30.00 10.00 10.00 20.00 1 1 1 78 339
 30 90.00 35.00 10.00 10.00 40.00 1 1 1 132 375
 31 88.00 30.00 10.00 10.00 20.00 1 1 1 252 359
 32 88.00 35.00 10.00 20.00 10.00 1 1 1 50 530
 33 87.00 30.00 10.00 10.00 10.00 1 1 1 562 799
 34 85.00 25.00 10.00 10.00 7.00 1 1 1 71 208
 35 85.00 35.00 10.00 30.00 16.00 1 1 1 307 787
 36 67.00 85.00 10.00 20.00 14.00 1 1 1 655 778
 37 65.00 85.00 10.00 40.00 26.00 1 1 1 43 186
 38 65.00 82.00 10.00 10.00 28.00 1 1 1 377 857
 39 62.00 80.00 10.00 30.00 5.00 1 1 1 308 368
 40 60.00 80.00 10.00 10.00 23.00 1 1 1 46 201
 41 60.00 85.00 10.00 30.00 20.00 1 1 1 339 438
 42 58.00 75.00 10.00 20.00 40.00 1 1 1 377 494
 43 55.00 80.00 10.00 10.00 10.00 1 1 1 33 166
 44 55.00 85.00 10.00 20.00 3.00 1 1 1 531 736
 45 55.00 82.00 10.00 10.00 35.00 1 1 1 247 307
 46 20.00 82.00 10.00 10.00 2.00 1 1 1 37 177
 47 18.00 80.00 10.00 10.00 19.00 1 1 1 432 665
 48 2.00 45.00 10.00 10.00 16.00 1 1 1 38 322
 49 42.00 5.00 10.00 10.00 10.00 1 1 1 424 904
 50 42.00 12.00 10.00 10.00 10.00 1 1 1 460 539
 51 72.00 35.00 10.00 30.00 13.00 1 1 1 327 807
 52 55.00 20.00 10.00 19.00 20.00 1 1 1 273 498
 53 25.00 30.00 10.00 3.00 25.00 1 1 1 25 505
 54 20.00 50.00 10.00 5.00 3.00 1 1 1 405 465
 55 55.00 60.00 10.00 16.00 30.00 1 1 1 554 767
 56 30.00 60.00 10.00 16.00 10.00 1 1 1 629 689
 57 50.00 35.00 10.00 19.00 20.00 1 1 1 560 673
 58 30.00 25.00 10.00 23.00 10.00 1 1 1 342 571
 59 15.00 10.00 10.00 20.00 10.00 1 1 1 842 902
 60 10.00 20.00 10.00 19.00 20.00 1 1 1 42 522
 61 15.00 60.00 10.00 17.00 20.00 1 1 1 623 884
 62 45.00 65.00 10.00 9.00 20.00 1 1 1 214 421
 63 65.00 35.00 10.00 3.00 30.00 1 1 1 197 257
 64 65.00 20.00 10.00 6.00 10.00 1 1 1 39 316
 65 45.00 30.00 10.00 17.00 31.00 1 1 1 191 310
 66 35.00 40.00 10.00 16.00 23.00 1 1 1 11 140
 67 41.00 37.00 10.00 16.00 20.00 1 1 1 570 681
 68 64.00 42.00 10.00 9.00 8.00 1 1 1 298 358
 69 40.00 60.00 10.00 21.00 30.00 1 1 1 613 730
 70 31.00 52.00 10.00 27.00 9.00 1 1 1 187 247
 71 35.00 69.00 10.00 23.00 10.00 1 1 1 780 930
 72 65.00 55.00 10.00 14.00 30.00 1 1 1 191 410
 73 63.00 65.00 10.00 8.00 19.00 1 1 1 27 507
 74 2.00 60.00 10.00 5.00 30.00 1 1 1 240 451
 75 20.00 20.00 10.00 8.00 10.00 1 1 1 675 735
 76 5.00 5.00 10.00 16.00 13.00 1 1 1 57 537
 77 60.00 12.00 10.00 31.00 10.00 1 1 1 298 358
 78 23.00 3.00 10.00 7.00 10.00 1 1 1 794 854
 79 8.00 56.00 10.00 27.00 27.00 1 1 1 366 483
 80 6.00 68.00 10.00 30.00 20.00 1 1 1 382 442
 81 47.00 47.00 10.00 13.00 16.00 1 1 1 817 942
 82 49.00 58.00 10.00 10.00 20.00 1 1 1 332 497
 83 27.00 43.00 10.00 9.00 10.00 1 1 1 14 494
 84 37.00 31.00 10.00 14.00 10.00 1 1 1 19 499
 85 57.00 29.00 10.00 18.00 30.00 1 1 1 425 485
 86 63.00 23.00 10.00 2.00 10.00 1 1 1 164 644
 87 21.00 24.00 10.00 28.00 14.00 1 1 1 310 507
 88 12.00 24.00 10.00 13.00 9.00 1 1 1 389 449
 89 24.00 58.00 10.00 19.00 15.00 1 1 1 262 377
 90 67.00 5.00 10.00 25.00 10.00 1 1 1 611 897
 91 37.00 47.00 10.00 6.00 18.00 1 1 1 311 526
 92 49.00 42.00 10.00 13.00 40.00 1 1 1 457 937
 93 53.00 43.00 10.00 14.00 6.00 1 1 1 14 74
 94 61.00 52.00 10.00 3.00 17.00 1 1 1 789 928
 95 57.00 48.00 10.00 23.00 20.00 1 1 1 212 692
 96 56.00 37.00 10.00 6.00 30.00 1 1 1 20 500
 97 55.00 54.00 10.00 26.00 3.00 1 1 1 382 862
 98 4.00 18.00 10.00 35.00 3.00 1 1 1 516 697
 99 26.00 52.00 10.00 9.00 16.00 1 1 1 14 494
 100 26.00 35.00 10.00 15.00 20.00 1 1 1 338 398
 101 31.00 67.00 10.00 3.00 8.00 1 1 1 870 930
